50
100
99
95
90
89
89
85
82
80
80
79
79
79
77
74
70
70
66
65
65
64
57
56
56
55
55
55
53
52
50
49
48
47
45
42
40
37
36
36
36
32
31
31
31
31
30
28
28
25
22
20
